p cnf 153 466
126 -8 -24 0
-3 -8 -24 0
3 -125 4 0
3 4 7 0
3 117 4 0
-3 -4 0
-3 -117 125 -7 0
4 127 -6 0
4 114 127 -5 0
-4 -127 0
-4 -114 6 0
-4 5 6 0
5 125 130 0
-5 -125 0
-5 -130 0
6 121 122 131 0
-6 -121 0
-6 -131 0
-6 -122 0
7 -128 -130 0
-7 128 0
-7 130 0
8 -131 15 -18 0
8 -9 15 -18 0
-8 18 0
-8 -15 0
-8 131 9 0
9 10 11 -12 0
9 120 11 -12 0
-9 12 0
-9 -11 0
-9 -120 -10 0
10 -121 -126 -130 0
-10 121 0
-10 126 0
-10 130 0
11 120 125 127 133 0
-11 -133 0
-11 -127 0
-11 -120 0
-11 -125 0
12 13 14 0
12 133 13 0
12 135 13 0
-12 -13 0
-12 -133 -135 -14 0
13 -121 -125 126 -129 0
-13 129 0
-13 121 0
-13 125 0
-13 -126 0
14 117 -121 0
-14 -117 0
-14 121 0
15 -115 -16 0
15 -115 -17 0
-15 115 0
-15 16 17 0
16 120 127 130 -139 0
-16 139 0
-16 -130 0
-16 -120 0
-16 -127 0
17 -125 -134 137 138 0
-17 134 0
-17 -138 0
-17 125 0
-17 -137 0
18 -139 -19 0
18 139 22 23 0
-18 139 -23 0
-18 -139 19 0
-18 139 -22 0
19 132 21 0
19 -130 21 0
19 20 21 0
-19 -21 0
-19 130 -132 -20 0
20 114 119 0
-20 -114 0
-20 -119 0
21 -119 -123 -128 131 0
-21 128 0
-21 -131 0
-21 119 0
-21 123 0
22 114 115 132 -135 0
-22 135 0
-22 -132 0
-22 -114 0
-22 -115 0
23 -116 -121 130 -134 0
-23 134 0
-23 116 0
-23 121 0
-23 -130 0
24 -25 -49 -74 -87 0
-24 87 0
-24 25 0
-24 74 0
-24 49 0
25 26 28 -30 -34 0
-25 -26 0
-25 34 0
-25 30 0
-25 -28 0
26 -115 -118 129 -27 0
-26 27 0
-26 115 0
-26 118 0
-26 -129 0
27 126 133 0
-27 -126 0
-27 -133 0
28 135 -137 139 -29 0
-28 137 0
-28 -139 0
-28 -135 0
-28 29 0
29 -116 119 0
-29 116 0
-29 -119 0
30 31 33 0
30 123 31 0
30 -121 31 0
-30 -31 0
-30 121 -123 -33 0
31 -126 -135 -138 -32 0
-31 32 0
-31 126 0
-31 138 0
-31 135 0
32 114 -125 0
-32 -114 0
-32 125 0
33 126 137 -138 0
-33 138 0
-33 -137 0
-33 -126 0
34 -35 -39 -43 -47 0
-34 47 0
-34 35 0
-34 43 0
-34 39 0
35 123 37 0
35 -120 37 0
35 36 37 0
-35 -37 0
-35 120 -123 -36 0
36 129 137 138 0
-36 -129 0
-36 -138 0
-36 -137 0
37 117 -122 -137 -38 0
-37 -117 0
-37 38 0
-37 137 0
-37 122 0
38 128 138 0
-38 -128 0
-38 -138 0
39 -122 40 0
39 40 42 0
39 -113 40 0
-39 -40 0
-39 113 122 -42 0
40 -126 -132 138 -41 0
-40 41 0
-40 126 0
-40 132 0
-40 -138 0
41 -115 -118 0
-41 115 0
-41 118 0
42 132 133 138 0
-42 -132 0
-42 -138 0
-42 -133 0
43 119 45 0
43 -118 45 0
43 44 45 0
-43 -45 0
-43 118 -119 -44 0
44 129 130 -135 0
-44 135 0
-44 -130 0
-44 -129 0
45 -120 -127 135 -46 0
-45 46 0
-45 120 0
-45 127 0
-45 -135 0
46 -115 134 0
-46 115 0
-46 -134 0
47 7 48 0
47 -135 48 0
47 14 48 0
-47 -48 0
-47 135 -7 -14 0
48 -120 125 134 -38 0
-48 38 0
-48 -134 0
-48 120 0
-48 -125 0
49 -50 -57 -63 -68 0
-49 68 0
-49 50 0
-49 63 0
-49 57 0
50 -137 -51 0
50 -134 -54 0
50 -134 -137 0
50 -51 -54 0
-50 137 54 0
-50 134 51 0
51 52 53 0
51 -115 53 0
51 -122 53 0
-51 -53 0
-51 115 122 -52 0
52 -126 127 0
-52 126 0
-52 -127 0
53 -117 124 -126 -128 0
-53 128 0
-53 117 0
-53 126 0
-53 -124 0
54 55 56 0
54 -124 56 0
54 -125 56 0
-54 -56 0
-54 124 125 -55 0
55 -126 135 0
-55 126 0
-55 -135 0
56 -115 123 -126 127 0
-56 126 0
-56 -127 0
-56 115 0
-56 -123 0
57 138 60 0
57 -58 60 0
57 131 60 0
-57 -60 0
-57 -131 -138 58 0
58 124 59 0
58 -114 59 0
58 -130 59 0
-58 -59 0
-58 114 -124 130 0
59 -113 115 -133 0
-59 113 0
-59 -115 0
-59 133 0
60 135 -61 0
60 -135 -62 0
-60 -135 62 0
-60 135 61 0
61 122 125 -127 -136 0
-61 -122 0
-61 136 0
-61 127 0
-61 -125 0
62 114 124 -130 -136 0
-62 -114 0
-62 136 0
-62 130 0
-62 -124 0
63 137 -66 0
63 127 -66 0
63 -64 -66 0
-63 66 0
-63 -127 -137 64 0
64 -116 65 0
64 -122 65 0
64 -135 65 0
-64 -65 0
-64 116 122 135 0
65 -113 123 126 0
-65 113 0
-65 -126 0
-65 -123 0
66 10 67 0
66 -134 67 0
66 115 67 0
-66 -67 0
-66 -115 134 -10 0
67 -114 125 136 -27 0
-67 27 0
-67 -136 0
-67 114 0
-67 -125 0
68 -127 69 0
68 69 -72 0
68 -121 69 0
-68 -69 0
-68 121 127 72 0
69 132 -70 0
69 132 -71 0
-69 -132 0
-69 70 71 0
70 113 -125 -127 130 0
-70 -113 0
-70 -130 0
-70 127 0
-70 125 0
71 -113 114 128 129 0
-71 -129 0
-71 -128 0
-71 113 0
-71 -114 0
72 130 73 0
72 -125 73 0
72 133 73 0
-72 -73 0
-72 125 -130 -133 0
73 -122 -130 -134 0
-73 122 0
-73 130 0
-73 134 0
74 115 78 -82 0
74 -75 78 -82 0
-74 82 0
-74 -78 0
-74 -115 75 0
75 76 77 0
75 -128 77 0
75 120 77 0
-75 -77 0
-75 -120 128 -76 0
76 -134 -138 0
-76 134 0
-76 138 0
77 124 -130 133 -138 0
-77 130 0
-77 -133 0
-77 -124 0
-77 138 0
78 138 -81 0
78 138 -79 -80 0
-78 -138 0
-78 79 81 0
-78 80 81 0
79 121 122 0
-79 -121 0
-79 -122 0
80 135 139 0
-80 -135 0
-80 -139 0
81 -117 -123 134 139 0
-81 123 0
-81 -139 0
-81 117 0
-81 -134 0
82 -139 -85 0
82 136 -83 0
82 136 -139 0
82 -83 -85 0
-82 -136 85 0
-82 139 83 0
83 125 84 0
83 -119 84 0
83 27 84 0
-83 -84 0
-83 119 -125 -27 0
84 -116 117 -130 -133 0
-84 133 0
-84 116 0
-84 130 0
-84 -117 0
85 126 86 0
85 127 86 0
85 125 86 0
-85 -86 0
-85 -125 -126 -127 0
86 -117 -122 127 139 0
-86 122 0
-86 -139 0
-86 117 0
-86 -127 0
87 129 88 -93 0
87 88 -90 -93 0
-87 93 0
-87 -88 0
-87 -129 90 0
88 -134 -89 0
88 -134 -32 -55 0
-88 134 0
-88 32 89 0
-88 55 89 0
89 115 125 130 138 0
-89 -138 0
-89 -130 0
-89 -115 0
-89 -125 0
90 138 0
90 -134 91 0
90 134 92 0
-90 134 -138 -92 0
-90 -134 -138 -91 0
91 -120 -121 0
-91 120 0
-91 121 0
92 116 119 0
-92 -116 0
-92 -119 0
93 -138 96 0
93 94 95 96 0
-93 -96 0
-93 138 -94 0
-93 138 -95 0
94 114 118 130 135 0
-94 -135 0
-94 -130 0
-94 -114 0
-94 -118 0
95 -113 125 126 -135 0
-95 135 0
-95 -126 0
-95 113 0
-95 -125 0
96 137 -97 0
96 137 -29 -76 0
-96 -137 0
-96 29 97 0
-96 76 97 0
97 -115 125 132 -138 0
-97 138 0
-97 -132 0
-97 115 0
-97 -125 0
-130 144 0
130 -144 0
127 -141 0
129 -143 0
-128 142 0
128 -142 0
-127 141 0
-132 146 0
131 -145 0
-129 143 0
-131 145 0
132 -146 0
-139 -112 0
139 112 0
-135 149 0
135 -149 0
-133 147 0
133 -147 0
138 -152 0
-138 152 0
-126 140 0
126 -140 0
-136 150 0
136 -150 0
137 -151 0
-137 151 0
134 -148 0
-134 148 0
112 119 153 0
112 -115 153 0
112 -123 153 0
-112 -153 0
-112 115 -119 123 0
